Grasp exp. instance_n_20_m_10_id_2.lp tipoLifted 0 szPool 5 nIteration 50 alpha 1 
Academic license - for non-commercial use only
Read LP format model from file ../input/instancesGenerated/instance_n_20_m_10_id_2.lp
Reading time = 0.00 seconds
: 10 rows, 20 columns, 104 nonzeros
Optimize a model with 10 rows, 20 columns and 104 nonzeros
Variable types: 0 continuous, 20 integer (20 binary)
Coefficient statistics:
  Matrix range     [1e+00, 1e+01]
  Objective range  [1e+00, 1e+01]
  Bounds range     [1e+00, 1e+00]
  RHS range        [2e+01, 3e+01]
Found heuristic solution: objective 42.0000000

Explored 0 nodes (0 simplex iterations) in 0.00 seconds
Thread count was 1 (of 8 available processors)

Solution count 1: 42 
No other solutions better than 0

Solution limit reached
Best objective 4.200000000000e+01, best bound -, gap -
C_1:	 9.00 x_1  = 1.000000 + 8.00 x_2  = 0.000000 + 5.00 x_3  = 0.461994 + 5.00 x_7  = 0.000000 + 8.00 x_9  = 0.000000 + 2.00 x_10  = 0.891217 + 9.00 x_13  = 0.776061 + 3.00 x_15  = 0.245656 + 2.00 x_16  = 1.000000 + 7.00 x_18  = 0.499133 + 8.00 x_19  = 0.836518 <= 33.00
C_2:	 6.00 x_1  = 1.000000 + 8.00 x_2  = 0.000000 + 1.00 x_4  = 1.000000 + 10.00 x_5  = 0.199131 + 8.00 x_6  = 0.000000 + 5.00 x_8  = 1.000000 + 2.00 x_12  = 0.000000 + 2.00 x_13  = 0.776061 + 10.00 x_15  = 0.245656 + 10.00 x_16  = 1.000000 + 4.00 x_17  = 1.000000 + 2.00 x_20  = 1.000000 <= 34.00
C_3:	 3.00 x_1  = 1.000000 + 4.00 x_2  = 0.000000 + 3.00 x_3  = 0.461994 + 3.00 x_4  = 1.000000 + 4.00 x_5  = 0.199131 + 8.00 x_7  = 0.000000 + 10.00 x_8  = 1.000000 + 9.00 x_9  = 0.000000 + 1.00 x_10  = 0.891217 + 1.00 x_12  = 0.000000 + 1.00 x_14  = 1.000000 + 1.00 x_18  = 0.499133 + 5.00 x_20  = 1.000000 <= 26.00
C_4:	 6.00 x_4  = 1.000000 + 9.00 x_6  = 0.000000 + 6.00 x_7  = 0.000000 + 5.00 x_9  = 0.000000 + 1.00 x_10  = 0.891217 + 10.00 x_12  = 0.000000 + 8.00 x_15  = 0.245656 + 8.00 x_19  = 0.836518 <= 26.00
C_5:	 6.00 x_6  = 0.000000 + 10.00 x_7  = 0.000000 + 7.00 x_11  = 1.000000 + 6.00 x_14  = 1.000000 + 4.00 x_15  = 0.245656 + 2.00 x_18  = 0.499133 + 6.00 x_19  = 0.836518 <= 20.00
C_6:	 7.00 x_3  = 0.461994 + 1.00 x_5  = 0.199131 + 8.00 x_6  = 0.000000 + 2.00 x_7  = 0.000000 + 3.00 x_9  = 0.000000 + 6.00 x_10  = 0.891217 + 4.00 x_14  = 1.000000 + 5.00 x_15  = 0.245656 + 8.00 x_16  = 1.000000 + 10.00 x_18  = 0.499133 <= 27.00
C_7:	 6.00 x_1  = 1.000000 + 4.00 x_3  = 0.461994 + 9.00 x_4  = 1.000000 + 6.00 x_6  = 0.000000 + 10.00 x_7  = 0.000000 + 4.00 x_9  = 0.000000 + 5.00 x_12  = 0.000000 + 7.00 x_13  = 0.776061 + 6.00 x_14  = 1.000000 + 7.00 x_15  = 0.245656 + 2.00 x_16  = 1.000000 + 2.00 x_20  = 1.000000 <= 34.00
C_8:	 4.00 x_1  = 1.000000 + 8.00 x_2  = 0.000000 + 2.00 x_4  = 1.000000 + 8.00 x_6  = 0.000000 + 8.00 x_7  = 0.000000 + 9.00 x_9  = 0.000000 + 1.00 x_10  = 0.891217 + 2.00 x_15  = 0.245656 + 6.00 x_17  = 1.000000 + 5.00 x_18  = 0.499133 + 10.00 x_19  = 0.836518 <= 31.00
C_9:	 3.00 x_1  = 1.000000 + 3.00 x_4  = 1.000000 + 10.00 x_5  = 0.199131 + 4.00 x_6  = 0.000000 + 6.00 x_7  = 0.000000 + 1.00 x_8  = 1.000000 + 1.00 x_11  = 1.000000 + 10.00 x_12  = 0.000000 + 2.00 x_14  = 1.000000 + 7.00 x_16  = 1.000000 + 1.00 x_18  = 0.499133 + 3.00 x_19  = 0.836518 + 6.00 x_20  = 1.000000 <= 28.00
C_10:	 3.00 x_5  = 0.199131 + 7.00 x_8  = 1.000000 + 7.00 x_9  = 0.000000 + 4.00 x_10  = 0.891217 + 6.00 x_12  = 0.000000 + 3.00 x_13  = 0.776061 + 3.00 x_19  = 0.836518 <= 16.00
Solution initial: 73.848370 
Number Constraints Used in Cover:10
GRASP Method!
Number cuts repeat: 0
value: 73.848370
Number Constraints Used in Cover:18
GRASP Method!
Number cuts repeat: 0
value: 73.848370
Number Constraints Used in Cover:33
GRASP Method!
Number cuts repeat: 0
value: 73.848370
Number Constraints Used in Cover:45
GRASP Method!
Number cuts repeat: 0
value: 73.848370
Number Constraints Used in Cover:54
GRASP Method!
Number cuts repeat: 0
value: 73.848370
Number Constraints Used in Cover:70
GRASP Method!
Number cuts repeat: 0
value: 73.848370
Number Constraints Used in Cover:89
GRASP Method!
Number cuts repeat: 0
value: 73.848370
Number Constraints Used in Cover:106
GRASP Method!
Number cuts repeat: 0
value: 73.848370
Number Constraints Used in Cover:133
GRASP Method!
Number cuts repeat: 0
value: 73.848370
Number Constraints Used in Cover:152
GRASP Method!
Number cuts repeat: 0
value: 73.848370
Number Constraints Used in Cover:176
GRASP Method!
Number cuts repeat: 0
value: 73.848370
Number Constraints Used in Cover:199
GRASP Method!
Number cuts repeat: 0
value: 73.848370
Number Constraints Used in Cover:221
GRASP Method!
Number cuts repeat: 0
value: 73.848370
Number Constraints Used in Cover:244
GRASP Method!
Number cuts repeat: 0
value: 73.848370
Number Constraints Used in Cover:270
GRASP Method!
Number cuts repeat: 0
value: 73.848370
Number Constraints Used in Cover:294
GRASP Method!
Number cuts repeat: 0
value: 73.848370
Number Constraints Used in Cover:325
GRASP Method!
Number cuts repeat: 0
value: 73.848370
Number Constraints Used in Cover:348
GRASP Method!
Number cuts repeat: 0
value: 73.848370
Number Constraints Used in Cover:370
GRASP Method!
Number cuts repeat: 0
value: 73.848370
Number Constraints Used in Cover:397
GRASP Method!
Number cuts repeat: 0
value: 73.848370
Number Constraints Used in Cover:421
GRASP Method!
Number cuts repeat: 0
value: 73.848370
Number Constraints Used in Cover:442
GRASP Method!
Number cuts repeat: 0
value: 73.848370
Number Constraints Used in Cover:467
GRASP Method!
Number cuts repeat: 0
value: 73.848370
Number Constraints Used in Cover:497
GRASP Method!
Number cuts repeat: 0
value: 73.848370
Number Constraints Used in Cover:521
GRASP Method!
Number cuts repeat: 0
value: 73.848370
Number Constraints Used in Cover:545
GRASP Method!
Number cuts repeat: 0
value: 73.848370
Number Constraints Used in Cover:574
GRASP Method!
Number cuts repeat: 0
value: 73.848370
Number Constraints Used in Cover:595
GRASP Method!
Number cuts repeat: 0
value: 73.848370
Number Constraints Used in Cover:616
GRASP Method!
Number cuts repeat: 0
value: 73.848370
Number Constraints Used in Cover:630
GRASP Method!
Number cuts repeat: 0
value: 73.848370
Number Constraints Used in Cover:651
GRASP Method!
Number cuts repeat: 0
value: 73.848370
Number Constraints Used in Cover:674
GRASP Method!
Number cuts repeat: 0
value: 73.848370
Number Constraints Used in Cover:695
GRASP Method!
Number cuts repeat: 0
value: 73.848370
Number Constraints Used in Cover:714
GRASP Method!
Number cuts repeat: 0
value: 73.848370
Number Constraints Used in Cover:736
GRASP Method!
Number cuts repeat: 0
value: 73.848370
Number Constraints Used in Cover:749
GRASP Method!
Number cuts repeat: 0
value: 73.848370
Number Constraints Used in Cover:774
GRASP Method!
Number cuts repeat: 0
value: 73.848370
Number Constraints Used in Cover:796
GRASP Method!
Number cuts repeat: 0
value: 73.848370
Number Constraints Used in Cover:816
GRASP Method!
Number cuts repeat: 0
value: 73.848370
Number Constraints Used in Cover:838
GRASP Method!
Number cuts repeat: 0
value: 73.848370
Number Constraints Used in Cover:852
GRASP Method!
Number cuts repeat: 0
value: 73.848370
Number Constraints Used in Cover:871
GRASP Method!
Number cuts repeat: 0
value: 73.848370
Number Constraints Used in Cover:891
GRASP Method!
Number cuts repeat: 0
value: 73.848370
Number Constraints Used in Cover:910
GRASP Method!
Number cuts repeat: 0
value: 73.848370
Number Constraints Used in Cover:938
GRASP Method!
Number cuts repeat: 0
value: 73.848370
Number Constraints Used in Cover:952
GRASP Method!
Number cuts repeat: 0
value: 73.848370
Number Constraints Used in Cover:977
GRASP Method!
Number cuts repeat: 0
value: 73.848370
Number Constraints Used in Cover:994
GRASP Method!
Number cuts repeat: 0
value: 73.848370
Number Constraints Used in Cover:1006
GRASP Method!
Number cuts repeat: 0
value: 73.848370
Number Constraints Used in Cover:1027
GRASP Method!
Number cuts repeat: 0
value: 73.848370
Number Cuts Final: 1028
